
n_res = 6;
rcap = [57, 47, 928, 922, 818, 971];
rtype = [1, 1, 2, 2, 2, 2];
n_tasks = 100;
modes =  [{1, 2, 3, 4, 5, 6}, {7, 8, 9, 10, 11, 12}, {13, 14, 15, 16, 17, 18}, {19, 20, 21, 22, 23, 24}, {25, 26, 27, 28, 29, 30}, {31, 32, 33, 34, 35, 36}, {37, 38, 39, 40, 41, 42}, {43, 44, 45, 46, 47, 48}, {49, 50, 51, 52, 53, 54}, {55, 56, 57, 58, 59, 60}, {61, 62, 63, 64, 65, 66}, {67, 68, 69, 70, 71, 72}, {73, 74, 75, 76, 77, 78}, {79, 80, 81, 82, 83, 84}, {85, 86, 87, 88, 89, 90}, {91, 92, 93, 94, 95, 96}, {97, 98, 99, 100, 101, 102}, {103, 104, 105, 106, 107, 108}, {109, 110, 111, 112, 113, 114}, {115, 116, 117, 118, 119, 120}, {121, 122, 123, 124, 125, 126}, {127, 128, 129, 130, 131, 132}, {133, 134, 135, 136, 137, 138}, {139, 140, 141, 142, 143, 144}, {145, 146, 147, 148, 149, 150}, {151, 152, 153, 154, 155, 156}, {157, 158, 159, 160, 161, 162}, {163, 164, 165, 166, 167, 168}, {169, 170, 171, 172, 173, 174}, {175, 176, 177, 178, 179, 180}, {181, 182, 183, 184, 185, 186}, {187, 188, 189, 190, 191, 192}, {193, 194, 195, 196, 197, 198}, {199, 200, 201, 202, 203, 204}, {205, 206, 207, 208, 209, 210}, {211, 212, 213, 214, 215, 216}, {217, 218, 219, 220, 221, 222}, {223, 224, 225, 226, 227, 228}, {229, 230, 231, 232, 233, 234}, {235, 236, 237, 238, 239, 240}, {241, 242, 243, 244, 245, 246}, {247, 248, 249, 250, 251, 252}, {253, 254, 255, 256, 257, 258}, {259, 260, 261, 262, 263, 264}, {265, 266, 267, 268, 269, 270}, {271, 272, 273, 274, 275, 276}, {277, 278, 279, 280, 281, 282}, {283, 284, 285, 286, 287, 288}, {289, 290, 291, 292, 293, 294}, {295, 296, 297, 298, 299, 300}, {301, 302, 303, 304, 305, 306}, {307, 308, 309, 310, 311, 312}, {313, 314, 315, 316, 317, 318}, {319, 320, 321, 322, 323, 324}, {325, 326, 327, 328, 329, 330}, {331, 332, 333, 334, 335, 336}, {337, 338, 339, 340, 341, 342}, {343, 344, 345, 346, 347, 348}, {349, 350, 351, 352, 353, 354}, {355, 356, 357, 358, 359, 360}, {361, 362, 363, 364, 365, 366}, {367, 368, 369, 370, 371, 372}, {373, 374, 375, 376, 377, 378}, {379, 380, 381, 382, 383, 384}, {385, 386, 387, 388, 389, 390}, {391, 392, 393, 394, 395, 396}, {397, 398, 399, 400, 401, 402}, {403, 404, 405, 406, 407, 408}, {409, 410, 411, 412, 413, 414}, {415, 416, 417, 418, 419, 420}, {421, 422, 423, 424, 425, 426}, {427, 428, 429, 430, 431, 432}, {433, 434, 435, 436, 437, 438}, {439, 440, 441, 442, 443, 444}, {445, 446, 447, 448, 449, 450}, {451, 452, 453, 454, 455, 456}, {457, 458, 459, 460, 461, 462}, {463, 464, 465, 466, 467, 468}, {469, 470, 471, 472, 473, 474}, {475, 476, 477, 478, 479, 480}, {481, 482, 483, 484, 485, 486}, {487, 488, 489, 490, 491, 492}, {493, 494, 495, 496, 497, 498}, {499, 500, 501, 502, 503, 504}, {505, 506, 507, 508, 509, 510}, {511, 512, 513, 514, 515, 516}, {517, 518, 519, 520, 521, 522}, {523, 524, 525, 526, 527, 528}, {529, 530, 531, 532, 533, 534}, {535, 536, 537, 538, 539, 540}, {541, 542, 543, 544, 545, 546}, {547, 548, 549, 550, 551, 552}, {553, 554, 555, 556, 557, 558}, {559, 560, 561, 562, 563, 564}, {565, 566, 567, 568, 569, 570}, {571, 572, 573, 574, 575, 576}, {577, 578, 579, 580, 581, 582}, {583, 584, 585, 586, 587, 588}, {589, 590, 591, 592, 593, 594}, {595, 596, 597, 598, 599, 600}];
succ =  [{14, 10, 2}, {21, 20, 19, 16, 13, 8}, {25, 24, 21, 20, 19, 16, 15, 12, 11}, {25, 21, 18, 17, 13, 9}, {28, 27, 25, 24, 23, 22, 21, 20, 18, 17}, {26, 24, 21, 11}, {26, 24, 21, 20, 17, 16}, {26, 25, 18, 11}, {37, 28, 27, 23, 22, 19}, {27, 23, 20, 19, 17}, {28, 27, 23, 22, 17}, {37, 33, 27, 22, 18}, {37, 35, 32, 24, 23}, {39, 37, 35, 33, 31, 30, 29, 27}, {37, 35, 33, 30, 23}, {35, 27, 23}, {39, 37, 35, 30, 29}, {39, 35, 32, 30, 29}, {39, 33, 31, 30, 29}, {39, 36, 35, 34, 32, 31, 29}, {42, 39, 32, 31, 30}, {46, 39, 36, 35, 34, 31}, {46, 39, 34, 31, 29}, {44, 42, 38, 33, 30}, {39, 37, 36, 34, 29}, {49, 47, 41, 39, 38, 37, 34}, {44, 41, 38, 36, 34, 32}, {44, 42, 41, 40, 38, 32}, {49, 48, 47, 45, 44, 42, 41, 40, 38}, {47, 46, 41, 36, 34}, {54, 50, 49, 48, 47, 45, 44, 41, 38}, {57, 54, 53, 51, 49, 48, 47, 45, 43}, {57, 53, 50, 49, 48, 45, 41}, {59, 57, 56, 55, 53, 51, 50, 48, 45}, {59, 57, 55, 54, 50, 48, 42}, {48, 43, 40}, {48, 44, 40}, {61, 57, 53, 52, 51, 43}, {64, 61, 60, 59, 56, 55, 53, 51, 50}, {64, 60, 59, 56, 55, 54, 53, 52, 50}, {64, 61, 60, 59, 56, 55, 52, 51}, {64, 61, 60, 56, 53, 52}, {70, 64, 63, 60, 59, 56, 55}, {74, 70, 64, 63, 62, 59, 58, 55}, {67, 61, 60, 58, 52}, {70, 64, 63, 62, 58, 56}, {77, 75, 72, 70, 67, 66, 65, 64, 63, 60}, {70, 66, 64, 63, 61, 58}, {77, 73, 70, 69, 68, 66, 65, 63, 62}, {77, 74, 73, 70, 68, 67, 63, 62}, {77, 72, 70, 66, 58}, {77, 70, 66, 65, 63, 62}, {77, 70, 69, 65, 63, 62}, {84, 82, 80, 78, 77, 75, 73, 72, 71, 70, 69, 68}, {85, 77, 75, 73, 72, 71, 69, 66, 65}, {77, 74, 72, 71, 68, 67, 65}, {82, 78, 77, 75, 70, 69, 68, 66}, {76, 75, 73, 69, 68, 65}, {100, 88, 84, 83, 82, 81, 80, 78, 77, 76, 75, 73}, {82, 80, 79, 78, 76, 73, 68}, {89, 78, 77, 75, 71, 68}, {100, 89, 81, 80, 79, 75, 72, 71}, {100, 88, 85, 84, 82, 81, 78, 71}, {100, 88, 85, 84, 82, 80, 79, 71}, {100, 97, 95, 89, 88, 84, 82, 80, 79, 78}, {100, 99, 95, 89, 88, 86, 84, 79, 76}, {88, 80, 69}, {100, 99, 98, 96, 88, 87, 85, 83, 81}, {100, 98, 97, 96, 86, 81, 79}, {99, 95, 94, 93, 89, 86, 76}, {99, 95, 94, 83, 76}, {95, 94, 88, 83, 76}, {98, 97, 95, 94, 93, 89, 87, 86}, {98, 97, 96, 95, 94, 92, 87, 86}, {99, 96, 95, 93, 92, 91, 90}, {98, 97, 96, 92, 91, 87}, {99, 95, 94, 93, 90, 86}, {99, 96, 94, 90, 86}, {94, 93, 92, 87}, {99, 98, 90, 86}, {95, 94, 92, 91}, {93, 92, 91, 90}, {93, 90, 86}, {96, 92, 90}, {97, 92, 90}, {91}, {90}, {93}, {92}, {}, {}, {}, {}, {}, {}, {}, {}, {}, {}, {}];
n_opt = 600;
dur = [3, 4, 7, 10, 11, 20, 1, 5, 7, 12, 13, 14, 1, 2, 3, 4, 8, 15, 2, 6, 9, 15, 16, 17, 3, 5, 6, 7, 10, 11, 5, 8, 9, 12, 15, 17, 1, 3, 4, 12, 18, 19, 2, 3, 4, 11, 14, 20, 4, 10, 15, 16, 17, 18, 6, 9, 10, 11, 12, 18, 2, 3, 7, 9, 10, 15, 3, 4, 7, 8, 9, 17, 4, 5, 8, 12, 14, 19, 4, 8, 15, 16, 17, 18, 2, 3, 11, 15, 18, 20, 5, 6, 13, 14, 16, 17, 1, 7, 11, 13, 18, 20, 2, 3, 9, 18, 19, 20, 4, 5, 6, 10, 13, 18, 1, 2, 3, 6, 9, 13, 1, 2, 9, 15, 18, 19, 1, 2, 3, 11, 12, 16, 3, 10, 12, 13, 16, 20, 1, 2, 4, 7, 8, 12, 4, 14, 15, 18, 19, 20, 3, 4, 8, 11, 14, 18, 3, 4, 5, 6, 11, 18, 4, 11, 12, 13, 16, 20, 4, 10, 14, 15, 16, 18, 5, 7, 9, 11, 12, 19, 6, 7, 10, 14, 15, 16, 11, 12, 13, 15, 18, 20, 3, 4, 7, 13, 17, 18, 2, 3, 7, 8, 16, 17, 4, 5, 8, 9, 11, 20, 5, 7, 8, 9, 10, 16, 1, 2, 4, 9, 14, 16, 1, 5, 13, 14, 16, 17, 1, 2, 5, 6, 14, 15, 6, 12, 14, 18, 19, 20, 4, 5, 13, 14, 17, 19, 3, 4, 11, 12, 18, 19, 4, 7, 8, 14, 19, 20, 2, 8, 9, 11, 16, 20, 4, 12, 13, 17, 19, 20, 7, 8, 9, 10, 11, 14, 3, 8, 13, 14, 15, 18, 4, 10, 12, 14, 15, 17, 3, 4, 7, 8, 11, 20, 1, 2, 10, 11, 13, 20, 1, 3, 4, 12, 17, 20, 6, 7, 15, 17, 18, 19, 2, 7, 10, 14, 17, 20, 1, 3, 10, 13, 17, 19, 4, 7, 8, 11, 14, 15, 2, 3, 4, 5, 6, 9, 1, 2, 4, 12, 16, 18, 4, 5, 9, 13, 19, 20, 3, 4, 5, 9, 10, 14, 1, 3, 10, 11, 13, 14, 3, 5, 7, 9, 10, 16, 5, 6, 9, 11, 12, 13, 10, 12, 15, 17, 18, 19, 3, 9, 11, 15, 16, 18, 4, 5, 9, 10, 14, 17, 2, 3, 11, 16, 17, 18, 5, 6, 8, 9, 11, 12, 3, 4, 8, 11, 12, 18, 1, 2, 6, 8, 14, 15, 1, 2, 5, 16, 19, 20, 5, 6, 7, 11, 12, 17, 4, 8, 9, 10, 13, 14, 1, 5, 7, 9, 11, 17, 2, 3, 4, 5, 19, 20, 4, 5, 8, 9, 10, 19, 3, 5, 8, 9, 15, 16, 3, 9, 10, 12, 15, 18, 5, 8, 14, 15, 16, 17, 7, 8, 9, 13, 17, 19, 3, 4, 12, 15, 19, 20, 4, 10, 11, 12, 16, 18, 1, 4, 9, 13, 14, 15, 5, 7, 14, 16, 17, 19, 1, 2, 4, 8, 16, 20, 2, 3, 8, 14, 18, 20, 2, 3, 4, 5, 18, 20, 8, 9, 10, 11, 12, 19, 4, 8, 9, 12, 14, 15, 4, 11, 16, 17, 19, 20, 9, 12, 14, 16, 17, 19, 2, 3, 4, 7, 8, 16, 2, 3, 8, 10, 15, 17, 6, 7, 14, 16, 19, 20, 1, 7, 13, 16, 17, 19, 1, 5, 8, 10, 13, 16, 2, 3, 5, 9, 10, 15, 1, 6, 13, 14, 15, 16, 1, 2, 7, 8, 9, 17, 4, 5, 8, 11, 12, 20, 5, 7, 9, 11, 13, 19];
rreq = [|10, 10, 8, 7, 5, 3, 10, 10, 9, 9, 9, 8, 6, 5, 5, 4, 4, 4, 7, 7, 7, 7, 7, 7, 12, 12, 11, 9, 9, 7, 10, 9, 9, 9, 9, 9, 17, 17, 17, 17, 17, 17, 18, 18, 18, 18, 18, 18, 20, 17, 16, 12, 11, 10, 4, 3, 3, 3, 3, 3, 14, 13, 12, 10, 9, 7, 6, 4, 4, 2, 1, 1, 8, 7, 6, 4, 4, 2, 16, 16, 16, 16, 15, 15, 16, 16, 15, 15, 13, 13, 7, 7, 5, 5, 4, 2, 3, 3, 3, 3, 3, 3, 14, 14, 14, 14, 14, 14, 13, 11, 10, 9, 7, 6, 18, 16, 15, 12, 11, 10, 4, 3, 3, 3, 3, 3, 11, 11, 10, 8, 6, 4, 19, 16, 15, 12, 12, 10, 16, 16, 15, 14, 14, 13, 15, 14, 14, 14, 13, 13, 12, 10, 8, 6, 5, 4, 12, 10, 9, 6, 5, 4, 18, 17, 17, 16, 14, 13, 16, 13, 11, 10, 5, 2, 7, 5, 4, 3, 2, 2, 14, 14, 14, 14, 14, 14, 11, 11, 10, 7, 6, 6, 15, 14, 13, 12, 10, 10, 16, 14, 12, 11, 9, 8, 16, 12, 10, 10, 6, 5, 4, 3, 3, 3, 3, 3, 9, 9, 7, 6, 3, 2, 18, 17, 17, 15, 15, 14, 16, 15, 15, 13, 13, 11, 15, 15, 14, 14, 14, 13, 16, 16, 16, 16, 16, 16, 5, 4, 4, 3, 3, 2, 17, 17, 16, 16, 15, 15, 18, 17, 15, 15, 14, 12, 10, 10, 10, 10, 10, 10, 15, 13, 10, 9, 3, 2, 7, 6, 5, 4, 3, 2, 18, 17, 17, 16, 14, 12, 13, 10, 10, 7, 6, 6, 19, 18, 18, 17, 16, 14, 18, 18, 18, 18, 18, 18, 11, 10, 10, 9, 6, 5, 19, 18, 18, 18, 18, 18, 18, 15, 13, 11, 6, 5, 13, 12, 12, 12, 11, 11, 15, 13, 11, 9, 7, 5, 11, 11, 10, 9, 8, 8, 14, 12, 9, 8, 4, 4, 18, 12, 10, 9, 5, 2, 18, 15, 13, 8, 4, 2, 10, 10, 10, 10, 9, 9, 10, 10, 10, 10, 10, 10, 16, 16, 15, 15, 15, 14, 15, 15, 13, 11, 10, 8, 9, 8, 6, 5, 5, 3, 14, 13, 13, 13, 13, 13, 18, 14, 13, 9, 7, 5, 17, 17, 16, 15, 14, 13, 10, 9, 9, 9, 9, 9, 13, 10, 9, 9, 6, 5, 16, 12, 11, 9, 6, 3, 20, 19, 19, 19, 18, 18, 7, 6, 6, 3, 3, 2, 18, 17, 17, 14, 14, 12, 11, 9, 8, 7, 7, 6, 6, 6, 5, 5, 5, 4, 12, 12, 11, 9, 8, 7, 4, 3, 3, 3, 3, 3, 14, 13, 12, 12, 11, 10, 20, 19, 18, 16, 15, 15, 1, 1, 1, 1, 1, 1, 11, 10, 10, 10, 10, 10, 11, 11, 11, 11, 11, 11, 17, 14, 14, 9, 6, 6, 10, 8, 7, 6, 5, 4, 19, 18, 18, 16, 16, 15, 6, 5, 5, 3, 3, 2, 7, 7, 5, 4, 4, 3, 15, 14, 13, 12, 11, 10, 19, 17, 15, 13, 13, 11, 16, 12, 11, 8, 7, 5, 2, 1, 1, 1, 1, 1, 18, 16, 14, 13, 10, 8, 17, 16, 11, 9, 4, 4, 18, 16, 15, 14, 14, 12, 5, 4, 3, 3, 2, 2, 13, 13, 11, 9, 9, 7, 15, 14, 11, 8, 6, 4, 18, 18, 17, 15, 14, 14, 15, 12, 9, 8, 7, 4
 |11, 10, 10, 9, 9, 9, 13, 12, 11, 11, 10, 10, 9, 8, 8, 7, 6, 6, 15, 13, 11, 10, 10, 9, 11, 10, 10, 8, 7, 6, 18, 15, 11, 10, 6, 4, 6, 5, 4, 4, 3, 3, 5, 5, 5, 5, 5, 5, 2, 2, 2, 2, 2, 2, 16, 11, 11, 9, 6, 4, 7, 7, 6, 5, 3, 3, 9, 9, 9, 8, 8, 8, 15, 14, 13, 13, 12, 10, 14, 13, 13, 13, 13, 13, 19, 16, 12, 9, 6, 4, 13, 13, 12, 9, 9, 7, 15, 13, 12, 12, 10, 9, 9, 8, 8, 8, 6, 6, 19, 18, 17, 17, 16, 15, 11, 10, 10, 10, 8, 8, 8, 7, 6, 6, 6, 5, 7, 6, 5, 4, 4, 3, 5, 4, 3, 3, 3, 2, 18, 15, 10, 6, 6, 1, 12, 10, 9, 9, 8, 7, 19, 15, 14, 12, 11, 7, 14, 12, 11, 9, 7, 7, 19, 16, 15, 14, 12, 12, 8, 8, 7, 6, 3, 3, 15, 14, 13, 13, 11, 11, 14, 13, 13, 12, 12, 12, 18, 14, 10, 7, 4, 3, 15, 12, 11, 6, 4, 2, 15, 14, 14, 14, 12, 12, 2, 2, 2, 2, 1, 1, 5, 4, 4, 3, 2, 2, 13, 13, 12, 10, 9, 8, 10, 10, 9, 6, 5, 4, 10, 9, 9, 8, 7, 7, 17, 16, 15, 13, 12, 12, 16, 15, 15, 14, 12, 12, 17, 14, 12, 11, 9, 8, 17, 17, 17, 16, 16, 15, 16, 15, 14, 13, 12, 12, 13, 11, 11, 10, 6, 6, 18, 18, 16, 13, 11, 9, 17, 14, 13, 12, 10, 9, 7, 7, 6, 5, 4, 3, 17, 15, 12, 11, 11, 9, 18, 14, 11, 10, 7, 4, 8, 8, 6, 4, 2, 2, 8, 8, 8, 8, 8, 8, 7, 7, 5, 5, 4, 2, 17, 17, 15, 14, 12, 12, 8, 7, 7, 7, 7, 7, 4, 3, 3, 3, 1, 1, 14, 12, 12, 10, 10, 8, 18, 16, 16, 13, 13, 10, 8, 7, 7, 5, 5, 3, 14, 12, 10, 8, 6, 6, 12, 9, 7, 6, 5, 2, 18, 17, 16, 12, 10, 10, 18, 18, 18, 18, 17, 17, 17, 15, 13, 11, 10, 10, 11, 9, 7, 7, 6, 3, 13, 12, 12, 12, 12, 12, 12, 12, 12, 12, 12, 12, 13, 12, 12, 12, 11, 11, 19, 17, 16, 14, 14, 11, 14, 14, 13, 11, 10, 10, 15, 14, 14, 14, 14, 14, 11, 9, 9, 7, 7, 5, 19, 15, 15, 13, 9, 9, 17, 16, 16, 15, 15, 15, 18, 15, 15, 12, 8, 5, 11, 8, 7, 6, 5, 4, 20, 19, 19, 19, 19, 19, 10, 10, 8, 6, 4, 4, 15, 15, 12, 8, 5, 4, 4, 4, 4, 4, 3, 3, 9, 9, 7, 6, 6, 5, 11, 10, 9, 8, 6, 5, 16, 13, 13, 11, 8, 8, 16, 15, 14, 13, 13, 11, 14, 12, 11, 11, 9, 8, 15, 15, 15, 15, 15, 15, 18, 17, 17, 17, 17, 17, 16, 14, 12, 9, 9, 6, 13, 12, 12, 11, 9, 7, 15, 15, 13, 11, 9, 8, 19, 16, 16, 13, 13, 12, 11, 11, 10, 8, 7, 7, 11, 10, 6, 6, 4, 2, 12, 10, 9, 8, 7, 7, 8, 7, 7, 7, 7, 7, 16, 15, 14, 12, 12, 11, 14, 13, 12, 11, 11, 9, 11, 11, 9, 9, 8, 7, 10, 8, 7, 7, 6, 5, 13, 12, 12, 12, 12, 12
 |16, 16, 15, 13, 11, 11, 14, 12, 10, 6, 3, 1, 15, 12, 10, 7, 4, 3, 16, 13, 11, 9, 7, 6, 16, 16, 13, 12, 10, 8, 19, 19, 19, 19, 18, 18, 19, 18, 17, 14, 13, 13, 15, 15, 14, 11, 11, 8, 19, 16, 16, 14, 13, 11, 14, 13, 11, 9, 5, 5, 18, 17, 17, 16, 16, 15, 18, 15, 14, 13, 13, 11, 15, 13, 13, 10, 8, 8, 11, 11, 10, 9, 9, 8, 13, 12, 11, 8, 7, 6, 18, 18, 18, 17, 16, 16, 8, 7, 6, 5, 5, 4, 15, 14, 12, 8, 6, 6, 20, 20, 20, 20, 20, 20, 9, 7, 7, 6, 5, 5, 8, 7, 7, 7, 7, 7, 16, 15, 14, 14, 12, 12, 8, 8, 8, 8, 8, 8, 9, 9, 8, 8, 7, 7, 18, 18, 16, 16, 14, 13, 3, 3, 2, 2, 1, 1, 15, 14, 13, 12, 12, 10, 8, 7, 7, 7, 7, 7, 16, 16, 12, 10, 9, 6, 12, 8, 8, 7, 5, 2, 7, 6, 5, 5, 3, 2, 13, 12, 10, 7, 7, 5, 16, 16, 14, 14, 12, 11, 9, 9, 8, 6, 5, 4, 11, 10, 10, 10, 9, 9, 14, 14, 14, 13, 12, 12, 16, 16, 16, 15, 15, 14, 10, 10, 7, 6, 6, 4, 11, 10, 10, 9, 9, 9, 12, 9, 8, 7, 3, 3, 12, 12, 12, 11, 11, 10, 15, 14, 14, 12, 11, 11, 12, 11, 10, 8, 7, 4, 12, 12, 11, 9, 9, 7, 20, 18, 16, 16, 13, 13, 17, 15, 14, 12, 11, 10, 18, 18, 16, 14, 12, 9, 9, 8, 7, 6, 5, 5, 16, 13, 13, 12, 10, 8, 12, 10, 9, 8, 7, 7, 14, 14, 13, 13, 11, 11, 10, 8, 8, 7, 6, 5, 5, 4, 4, 3, 3, 3, 14, 12, 11, 10, 9, 8, 7, 5, 4, 3, 3, 2, 17, 16, 16, 16, 16, 16, 15, 15, 12, 11, 10, 9, 19, 13, 12, 8, 8, 4, 17, 17, 17, 17, 16, 16, 7, 7, 5, 4, 3, 2, 18, 14, 11, 8, 6, 4, 8, 7, 6, 6, 5, 5, 9, 9, 7, 6, 5, 4, 14, 13, 13, 12, 10, 9, 9, 8, 8, 8, 7, 7, 4, 4, 4, 3, 3, 3, 19, 19, 19, 18, 18, 18, 19, 17, 16, 15, 12, 11, 18, 16, 13, 11, 8, 8, 2, 2, 2, 2, 1, 1, 15, 14, 13, 13, 12, 11, 5, 5, 4, 2, 1, 1, 10, 10, 9, 8, 7, 5, 8, 7, 7, 7, 7, 7, 16, 15, 14, 10, 9, 7, 12, 12, 12, 12, 11, 11, 11, 10, 7, 7, 3, 2, 12, 9, 7, 5, 4, 3, 16, 16, 13, 11, 10, 8, 15, 14, 12, 12, 9, 8, 11, 11, 11, 11, 11, 11, 17, 14, 12, 12, 10, 8, 18, 17, 16, 16, 14, 14, 12, 11, 11, 11, 10, 10, 6, 6, 5, 3, 2, 2, 18, 18, 15, 13, 11, 9, 19, 17, 16, 15, 14, 13, 12, 9, 8, 7, 4, 2, 19, 15, 12, 12, 8, 7, 9, 6, 5, 4, 3, 2, 17, 15, 14, 11, 11, 9, 18, 15, 15, 12, 11, 9, 18, 13, 13, 8, 7, 1, 7, 6, 6, 6, 6, 6, 15, 13, 10, 8, 7, 4, 19, 18, 16, 14, 14, 12, 11, 10, 10, 9, 9, 8, 19, 19, 18, 17, 15, 15, 19, 18, 18, 17, 17, 17, 10, 9, 9, 9, 9, 9
 |18, 18, 17, 16, 15, 14, 18, 17, 16, 16, 15, 15, 3, 3, 3, 2, 2, 2, 14, 13, 11, 11, 10, 9, 19, 13, 12, 7, 6, 1, 12, 11, 10, 9, 9, 8, 16, 12, 8, 8, 3, 1, 16, 15, 13, 13, 11, 11, 16, 15, 15, 14, 14, 14, 17, 17, 17, 16, 16, 16, 15, 15, 13, 12, 12, 11, 18, 17, 17, 17, 17, 17, 15, 13, 12, 12, 10, 10, 15, 12, 11, 10, 9, 9, 14, 14, 10, 8, 5, 3, 17, 13, 10, 8, 5, 1, 9, 9, 9, 9, 9, 9, 16, 13, 11, 10, 8, 6, 19, 17, 14, 14, 10, 10, 19, 15, 13, 10, 9, 5, 17, 16, 13, 10, 8, 7, 3, 3, 3, 3, 3, 3, 17, 17, 17, 16, 15, 15, 15, 13, 13, 13, 12, 11, 6, 6, 5, 5, 5, 4, 17, 15, 14, 13, 13, 12, 8, 7, 6, 6, 4, 4, 19, 16, 11, 10, 6, 2, 16, 15, 14, 13, 12, 12, 17, 15, 14, 14, 13, 12, 13, 13, 13, 13, 12, 12, 14, 13, 11, 8, 4, 3, 14, 13, 13, 13, 13, 13, 16, 15, 15, 15, 13, 13, 5, 5, 4, 3, 2, 1, 15, 14, 10, 10, 7, 6, 16, 16, 14, 14, 12, 11, 16, 16, 16, 16, 16, 16, 19, 18, 18, 18, 18, 18, 6, 6, 6, 5, 5, 4, 3, 3, 3, 3, 3, 3, 10, 10, 8, 7, 6, 6, 16, 15, 15, 14, 14, 14, 19, 16, 15, 14, 12, 12, 13, 11, 11, 10, 9, 8, 9, 8, 7, 6, 5, 4, 17, 16, 14, 13, 10, 8, 18, 18, 18, 18, 18, 18, 15, 13, 13, 11, 10, 10, 17, 16, 15, 11, 11, 7, 5, 4, 4, 4, 2, 2, 17, 13, 9, 7, 6, 3, 9, 8, 7, 5, 5, 3, 9, 9, 9, 9, 9, 9, 13, 13, 10, 9, 9, 6, 13, 13, 13, 13, 13, 13, 3, 3, 3, 3, 3, 3, 18, 17, 15, 12, 11, 9, 17, 15, 11, 7, 6, 3, 20, 19, 18, 18, 17, 16, 6, 6, 6, 6, 6, 6, 16, 14, 10, 9, 6, 2, 15, 13, 10, 7, 6, 4, 15, 15, 15, 15, 14, 14, 12, 11, 10, 9, 8, 7, 17, 16, 15, 13, 12, 11, 10, 7, 6, 5, 3, 1, 18, 16, 15, 11, 8, 7, 18, 17, 16, 16, 14, 12, 7, 7, 6, 6, 5, 4, 13, 10, 8, 8, 5, 5, 6, 5, 5, 4, 3, 3, 3, 3, 3, 2, 1, 1, 17, 14, 14, 12, 12, 11, 5, 5, 4, 4, 4, 3, 18, 15, 15, 14, 10, 10, 18, 16, 13, 11, 9, 7, 11, 11, 9, 9, 8, 6, 10, 10, 10, 10, 10, 10, 10, 9, 9, 9, 7, 7, 5, 5, 5, 5, 4, 4, 13, 13, 12, 10, 10, 9, 12, 11, 11, 10, 10, 10, 15, 14, 14, 14, 13, 13, 18, 17, 15, 14, 13, 11, 17, 15, 11, 9, 6, 6, 6, 5, 4, 4, 3, 2, 6, 6, 6, 6, 6, 6, 13, 11, 11, 9, 7, 4, 16, 16, 14, 13, 10, 9, 12, 12, 12, 12, 12, 12, 11, 10, 9, 9, 8, 7, 16, 15, 14, 11, 10, 8, 4, 3, 2, 2, 1, 1, 16, 16, 10, 7, 6, 2, 18, 18, 18, 17, 17, 17, 11, 10, 10, 10, 10, 10, 12, 11, 10, 10, 9, 8, 17, 14, 12, 10, 6, 6, 11, 9, 8, 5, 4, 2
 |8, 8, 7, 5, 5, 4, 8, 8, 8, 8, 8, 8, 7, 6, 4, 3, 2, 2, 18, 17, 12, 8, 5, 4, 13, 12, 10, 10, 8, 8, 11, 11, 10, 9, 8, 7, 6, 5, 4, 3, 3, 1, 19, 15, 15, 11, 10, 9, 2, 2, 2, 2, 2, 2, 17, 14, 11, 9, 5, 4, 18, 17, 17, 17, 17, 17, 8, 8, 8, 8, 8, 8, 17, 16, 14, 11, 11, 8, 14, 11, 9, 8, 5, 3, 9, 6, 5, 5, 3, 1, 18, 18, 16, 15, 14, 13, 10, 9, 7, 6, 6, 3, 9, 9, 9, 9, 9, 9, 18, 17, 16, 15, 14, 14, 9, 8, 6, 5, 5, 4, 20, 17, 14, 10, 9, 6, 3, 3, 2, 2, 2, 1, 3, 2, 2, 2, 2, 2, 18, 18, 16, 13, 12, 10, 8, 8, 8, 7, 7, 7, 7, 6, 6, 5, 5, 4, 8, 7, 5, 4, 3, 3, 16, 15, 12, 10, 5, 3, 14, 11, 11, 7, 7, 4, 18, 17, 15, 13, 12, 10, 14, 14, 13, 11, 10, 10, 18, 15, 15, 12, 10, 8, 9, 9, 9, 9, 8, 8, 9, 9, 6, 4, 4, 1, 20, 19, 18, 17, 17, 16, 13, 13, 13, 13, 12, 12, 11, 11, 9, 7, 4, 4, 13, 13, 12, 10, 8, 8, 7, 5, 5, 4, 3, 3, 8, 7, 6, 4, 2, 2, 16, 15, 15, 14, 14, 13, 16, 14, 13, 12, 10, 7, 16, 16, 15, 13, 13, 12, 9, 7, 6, 5, 5, 4, 13, 11, 10, 9, 9, 7, 15, 12, 9, 8, 6, 4, 12, 12, 11, 9, 9, 7, 8, 8, 6, 5, 5, 4, 17, 14, 11, 11, 9, 6, 11, 11, 11, 11, 11, 11, 10, 9, 7, 5, 5, 3, 13, 10, 8, 5, 5, 1, 8, 7, 7, 6, 6, 5, 17, 17, 15, 13, 12, 10, 9, 8, 7, 7, 7, 6, 20, 16, 14, 12, 7, 6, 17, 14, 14, 11, 5, 3, 10, 10, 9, 8, 7, 7, 12, 8, 6, 6, 2, 1, 6, 4, 4, 4, 3, 2, 18, 16, 14, 11, 9, 7, 11, 10, 10, 9, 9, 8, 6, 6, 5, 5, 5, 4, 12, 11, 10, 9, 7, 7, 16, 15, 14, 12, 11, 11, 10, 9, 8, 8, 6, 6, 16, 15, 13, 10, 8, 8, 15, 14, 14, 13, 12, 10, 16, 13, 13, 12, 10, 8, 15, 15, 15, 15, 14, 14, 14, 11, 9, 8, 5, 3, 10, 9, 7, 5, 2, 2, 17, 16, 14, 12, 8, 6, 20, 19, 19, 18, 18, 18, 18, 16, 15, 13, 11, 8, 15, 13, 12, 12, 10, 9, 16, 12, 9, 7, 4, 4, 16, 15, 15, 14, 14, 14, 15, 14, 14, 14, 13, 12, 17, 17, 17, 17, 16, 16, 9, 8, 8, 6, 6, 5, 2, 1, 1, 1, 1, 1, 16, 13, 11, 10, 4, 3, 16, 15, 15, 14, 12, 12, 15, 14, 12, 10, 10, 8, 16, 14, 14, 12, 12, 10, 18, 17, 15, 12, 11, 9, 16, 16, 14, 9, 7, 6, 17, 16, 16, 16, 16, 16, 5, 4, 4, 4, 3, 2, 14, 12, 12, 11, 9, 9, 13, 12, 12, 12, 12, 12, 3, 3, 3, 3, 3, 3, 16, 15, 13, 10, 6, 2, 12, 12, 11, 9, 8, 6, 8, 8, 6, 4, 3, 2, 10, 10, 10, 9, 8, 8, 5, 4, 4, 3, 3, 3, 16, 13, 12, 9, 6, 4, 8, 7, 7, 6, 5, 5
 |9, 8, 7, 7, 7, 6, 20, 19, 18, 18, 17, 16, 16, 13, 12, 11, 11, 10, 13, 9, 7, 6, 4, 3, 12, 12, 12, 12, 11, 11, 11, 10, 10, 9, 9, 9, 10, 10, 10, 10, 10, 10, 19, 19, 19, 18, 17, 17, 16, 12, 9, 9, 7, 4, 13, 12, 12, 12, 10, 10, 16, 12, 11, 9, 7, 4, 17, 17, 17, 17, 17, 17, 14, 12, 9, 6, 4, 3, 18, 18, 18, 18, 17, 17, 15, 15, 15, 15, 15, 15, 14, 14, 10, 8, 8, 4, 9, 8, 7, 6, 5, 3, 19, 19, 18, 17, 16, 15, 19, 17, 17, 16, 14, 14, 16, 15, 15, 15, 14, 14, 11, 9, 8, 6, 4, 3, 17, 17, 17, 17, 17, 17, 18, 18, 18, 18, 18, 18, 8, 7, 5, 4, 3, 3, 18, 16, 14, 11, 9, 8, 11, 10, 10, 10, 10, 10, 19, 17, 16, 16, 15, 14, 6, 5, 4, 4, 2, 2, 7, 7, 5, 5, 4, 3, 17, 15, 14, 9, 9, 7, 6, 5, 4, 3, 2, 2, 7, 7, 6, 6, 5, 5, 17, 15, 12, 10, 8, 5, 12, 10, 10, 9, 7, 7, 18, 18, 17, 14, 13, 11, 19, 17, 17, 17, 15, 15, 16, 15, 13, 12, 11, 8, 16, 16, 15, 15, 15, 14, 9, 7, 6, 5, 2, 2, 11, 11, 9, 6, 4, 3, 18, 17, 15, 13, 10, 10, 15, 14, 12, 11, 11, 10, 18, 17, 15, 15, 12, 11, 6, 6, 5, 5, 4, 4, 9, 8, 8, 8, 7, 6, 12, 11, 10, 9, 9, 8, 18, 18, 17, 16, 16, 15, 2, 2, 2, 2, 2, 2, 9, 8, 7, 7, 7, 6, 13, 13, 12, 11, 9, 8, 8, 6, 6, 6, 5, 4, 19, 19, 18, 18, 17, 16, 12, 9, 8, 6, 5, 2, 15, 14, 10, 9, 8, 6, 19, 17, 16, 14, 12, 11, 14, 12, 10, 8, 6, 5, 18, 15, 12, 11, 9, 8, 8, 7, 7, 7, 5, 5, 8, 7, 7, 6, 5, 5, 17, 17, 16, 13, 12, 11, 15, 14, 13, 13, 13, 12, 14, 13, 12, 12, 10, 10, 8, 6, 6, 5, 4, 4, 15, 15, 14, 13, 13, 12, 10, 10, 9, 8, 8, 7, 15, 14, 14, 13, 12, 10, 7, 7, 5, 4, 4, 3, 18, 18, 16, 16, 14, 14, 8, 8, 8, 8, 8, 8, 18, 18, 18, 18, 18, 18, 16, 13, 13, 11, 11, 9, 18, 16, 13, 11, 8, 8, 15, 14, 13, 13, 12, 11, 13, 13, 11, 11, 10, 9, 15, 14, 14, 13, 12, 12, 2, 2, 2, 1, 1, 1, 14, 13, 10, 10, 6, 6, 15, 12, 12, 8, 7, 3, 8, 7, 7, 5, 4, 3, 17, 14, 11, 10, 8, 4, 16, 15, 15, 14, 14, 13, 4, 3, 3, 3, 2, 1, 19, 16, 13, 12, 10, 8, 20, 15, 15, 12, 10, 7, 19, 13, 10, 7, 7, 4, 15, 14, 14, 12, 12, 11, 19, 19, 18, 17, 17, 16, 15, 13, 12, 10, 7, 7, 17, 15, 14, 11, 10, 9, 3, 2, 2, 1, 1, 1, 11, 10, 7, 6, 3, 3, 4, 4, 4, 4, 4, 4, 14, 14, 12, 12, 11, 10, 19, 13, 12, 10, 6, 2, 16, 16, 12, 12, 10, 6, 17, 15, 12, 12, 11, 8, 20, 19, 19, 18, 18, 17, 17, 16, 15, 15, 13, 13, 16, 14, 12, 11, 11, 10, 16, 14, 14, 13, 11, 11|];